55
1 0 10
2 0 54
2 1 45
3 0 72
3 1 4
3 2 69
4 0 79
4 1 83
4 2 3
4 3 54
5 0 58
5 1 65
5 2 67
5 3 98
5 4 79
6 0 50
6 1 11
6 2 62
6 3 1
6 4 40
6 5 99
7 0 91
7 1 43
7 2 7
7 3 86
7 4 62
7 5 56
7 6 10
8 0 34
8 1 2
8 2 41
8 3 46
8 4 52
8 5 68
8 6 46
8 7 59
9 0 12
9 1 86
9 2 48
9 3 84
9 4 72
9 5 71
9 6 93
9 7 10
9 8 84
10 0 86
10 1 82
10 2 82
10 3 69
10 4 20
10 5 90
10 6 74
10 7 8
10 8 73
10 9 79
11 0 99
11 1 52
11 2 94
11 3 41
11 4 57
11 5 73
11 6 7
11 7 64
11 8 12
11 9 97
11 10 9
12 0 26
12 1 67
12 2 98
12 3 51
12 4 60
12 5 68
12 6 34
12 7 6
12 8 24
12 9 63
12 10 68
12 11 4
13 0 94
13 1 98
13 2 90
13 3 84
13 4 56
13 5 10
13 6 45
13 7 88
13 8 46
13 9 71
13 10 32
13 11 10
13 12 100
14 0 78
14 1 13
14 2 54
14 3 84
14 4 3
14 5 74
14 6 78
14 7 22
14 8 39
14 9 100
14 10 39
14 11 51
14 12 8
14 13 78
15 0 39
15 1 66
15 2 20
15 3 28
15 4 48
15 5 34
15 6 7
15 7 22
15 8 76
15 9 79
15 10 48
15 11 53
15 12 82
15 13 88
15 14 76
16 0 62
16 1 69
16 2 83
16 3 42
16 4 23
16 5 93
16 6 42
16 7 52
16 8 57
16 9 87
16 10 84
16 11 16
16 12 22
16 13 85
16 14 50
16 15 78
17 0 94
17 1 74
17 2 33
17 3 14
17 4 45
17 5 39
17 6 41
17 7 9
17 8 72
17 9 63
17 10 13
17 11 58
17 12 50
17 13 92
17 14 1
17 15 51
17 16 91
18 0 89
18 1 93
18 2 37
18 3 46
18 4 31
18 5 57
18 6 70
18 7 89
18 8 25
18 9 99
18 10 96
18 11 48
18 12 44
18 13 98
18 14 22
18 15 93
18 16 11
18 17 47
19 0 77
19 1 80
19 2 86
19 3 94
19 4 65
19 5 23
19 6 23
19 7 2
19 8 56
19 9 42
19 10 10
19 11 46
19 12 85
19 13 97
19 14 16
19 15 3
19 16 30
19 17 18
19 18 96
20 0 44
20 1 6
20 2 93
20 3 21
20 4 99
20 5 100
20 6 60
20 7 59
20 8 59
20 9 13
20 10 22
20 11 8
20 12 59
20 13 6
20 14 97
20 15 53
20 16 25
20 17 57
20 18 44
20 19 5
21 0 98
21 1 64
21 2 37
21 3 46
21 4 69
21 5 80
21 6 99
21 7 87
21 8 71
21 9 41
21 10 85
21 11 3
21 12 33
21 13 20
21 14 92
21 15 15
21 16 82
21 17 41
21 18 49
21 19 28
21 20 38
22 0 24
22 1 79
22 2 47
22 3 63
22 4 32
22 5 76
22 6 22
22 7 36
22 8 59
22 9 10
22 10 3
22 11 72
22 12 76
22 13 65
22 14 1
22 15 14
22 16 21
22 17 77
22 18 96
22 19 54
22 20 2
22 21 12
23 0 20
23 1 79
23 2 40
23 3 19
23 4 18
23 5 23
23 6 88
23 7 34
23 8 67
23 9 97
23 10 93
23 11 29
23 12 100
23 13 12
23 14 82
23 15 25
23 16 64
23 17 17
23 18 100
23 19 19
23 20 14
23 21 35
23 22 25
24 0 90
24 1 25
24 2 40
24 3 38
24 4 85
24 5 58
24 6 29
24 7 26
24 8 7
24 9 34
24 10 80
24 11 36
24 12 37
24 13 82
24 14 96
24 15 30
24 16 79
24 17 79
24 18 69
24 19 85
24 20 19
24 21 94
24 22 30
24 23 44
25 0 3
25 1 97
25 2 54
25 3 29
25 4 3
25 5 9
25 6 49
25 7 49
25 8 26
25 9 85
25 10 34
25 11 75
25 12 68
25 13 79
25 14 99
25 15 69
25 16 31
25 17 14
25 18 94
25 19 80
25 20 51
25 21 62
25 22 81
25 23 44
25 24 5
26 0 13
26 1 77
26 2 63
26 3 94
26 4 78
26 5 34
26 6 38
26 7 28
26 8 61
26 9 54
26 10 83
26 11 46
26 12 96
26 13 44
26 14 54
26 15 54
26 16 35
26 17 32
26 18 53
26 19 74
26 20 18
26 21 21
26 22 3
26 23 15
26 24 82
26 25 53
27 0 14
27 1 29
27 2 86
27 3 89
27 4 59
27 5 5
27 6 40
27 7 45
27 8 48
27 9 12
27 10 87
27 11 44
27 12 74
27 13 97
27 14 73
27 15 54
27 16 51
27 17 100
27 18 86
27 19 36
27 20 85
27 21 39
27 22 74
27 23 26
27 24 37
27 25 76
27 26 53
28 0 10
28 1 73
28 2 77
28 3 73
28 4 79
28 5 15
28 6 13
28 7 15
28 8 68
28 9 23
28 10 67
28 11 7
28 12 17
28 13 91
28 14 62
28 15 9
28 16 2
28 17 25
28 18 3
28 19 2
28 20 39
28 21 39
28 22 1
28 23 60
28 24 41
28 25 84
28 26 40
28 27 18
29 0 90
29 1 1
29 2 82
29 3 48
29 4 62
29 5 68
29 6 36
29 7 4
29 8 99
29 9 59
29 10 34
29 11 14
29 12 28
29 13 66
29 14 79
29 15 12
29 16 70
29 17 30
29 18 76
29 19 51
29 20 87
29 21 88
29 22 45
29 23 29
29 24 58
29 25 36
29 26 83
29 27 31
29 28 88
30 0 61
30 1 32
30 2 61
30 3 86
30 4 95
30 5 53
30 6 17
30 7 67
30 8 84
30 9 28
30 10 37
30 11 62
30 12 91
30 13 32
30 14 13
30 15 51
30 16 70
30 17 55
30 18 66
30 19 35
30 20 67
30 21 49
30 22 2
30 23 29
30 24 50
30 25 50
30 26 16
30 27 39
30 28 82
30 29 95
31 0 14
31 1 39
31 2 60
31 3 18
31 4 46
31 5 87
31 6 7
31 7 19
31 8 92
31 9 24
31 10 91
31 11 21
31 12 47
31 13 55
31 14 87
31 15 70
31 16 77
31 17 6
31 18 31
31 19 41
31 20 56
31 21 4
31 22 21
31 23 49
31 24 100
31 25 25
31 26 56
31 27 83
31 28 69
31 29 3
31 30 30
32 0 14
32 1 90
32 2 2
32 3 21
32 4 45
32 5 23
32 6 88
32 7 35
32 8 93
32 9 85
32 10 59
32 11 100
32 12 33
32 13 88
32 14 14
32 15 19
32 16 46
32 17 70
32 18 68
32 19 25
32 20 39
32 21 15
32 22 54
32 23 5
32 24 38
32 25 100
32 26 58
32 27 72
32 28 66
32 29 3
32 30 86
32 31 14
33 0 66
33 1 70
33 2 48
33 3 48
33 4 22
33 5 24
33 6 25
33 7 45
33 8 89
33 9 59
33 10 39
33 11 25
33 12 45
33 13 56
33 14 47
33 15 24
33 16 13
33 17 16
33 18 33
33 19 76
33 20 17
33 21 86
33 22 57
33 23 83
33 24 84
33 25 36
33 26 8
33 27 53
33 28 95
33 29 12
33 30 44
33 31 16
33 32 35
34 0 62
34 1 25
34 2 75
34 3 30
34 4 19
34 5 86
34 6 42
34 7 34
34 8 86
34 9 87
34 10 52
34 11 19
34 12 58
34 13 44
34 14 66
34 15 93
34 16 74
34 17 30
34 18 18
34 19 28
34 20 87
34 21 99
34 22 43
34 23 81
34 24 88
34 25 70
34 26 6
34 27 50
34 28 31
34 29 78
34 30 25
34 31 85
34 32 38
34 33 74
35 0 29
35 1 46
35 2 90
35 3 32
35 4 35
35 5 89
35 6 20
35 7 99
35 8 1
35 9 11
35 10 72
35 11 94
35 12 7
35 13 94
35 14 95
35 15 43
35 16 64
35 17 22
35 18 77
35 19 93
35 20 54
35 21 57
35 22 49
35 23 69
35 24 58
35 25 16
35 26 1
35 27 46
35 28 11
35 29 70
35 30 97
35 31 48
35 32 100
35 33 50
35 34 90
36 0 9
36 1 99
36 2 58
36 3 59
36 4 58
36 5 97
36 6 87
36 7 19
36 8 2
36 9 64
36 10 23
36 11 92
36 12 19
36 13 70
36 14 66
36 15 22
36 16 97
36 17 40
36 18 98
36 19 89
36 20 77
36 21 21
36 22 98
36 23 38
36 24 79
36 25 86
36 26 54
36 27 31
36 28 21
36 29 2
36 30 49
36 31 14
36 32 65
36 33 46
36 34 9
36 35 11
37 0 53
37 1 30
37 2 43
37 3 27
37 4 4
37 5 84
37 6 2
37 7 4
37 8 91
37 9 1
37 10 56
37 11 61
37 12 29
37 13 41
37 14 59
37 15 21
37 16 27
37 17 56
37 18 33
37 19 96
37 20 96
37 21 69
37 22 23
37 23 95
37 24 9
37 25 42
37 26 83
37 27 60
37 28 65
37 29 86
37 30 89
37 31 61
37 32 89
37 33 24
37 34 13
37 35 93
37 36 79
38 0 2
38 1 87
38 2 65
38 3 88
38 4 96
38 5 36
38 6 69
38 7 80
38 8 80
38 9 79
38 10 65
38 11 28
38 12 40
38 13 9
38 14 33
38 15 18
38 16 56
38 17 5
38 18 64
38 19 86
38 20 82
38 21 50
38 22 98
38 23 8
38 24 95
38 25 35
38 26 32
38 27 10
38 28 1
38 29 92
38 30 52
38 31 73
38 32 13
38 33 79
38 34 63
38 35 54
38 36 35
38 37 10
39 0 26
39 1 34
39 2 28
39 3 100
39 4 18
39 5 83
39 6 33
39 7 79
39 8 79
39 9 90
39 10 80
39 11 80
39 12 9
39 13 95
39 14 10
39 15 15
39 16 35
39 17 41
39 18 81
39 19 96
39 20 59
39 21 7
39 22 49
39 23 46
39 24 42
39 25 6
39 26 33
39 27 45
39 28 12
39 29 62
39 30 3
39 31 58
39 32 81
39 33 81
39 34 70
39 35 81
39 36 16
39 37 3
39 38 41
40 0 78
40 1 96
40 2 89
40 3 81
40 4 2
40 5 53
40 6 67
40 7 1
40 8 31
40 9 79
40 10 75
40 11 48
40 12 43
40 13 46
40 14 39
40 15 85
40 16 33
40 17 71
40 18 92
40 19 64
40 20 26
40 21 14
40 22 30
40 23 56
40 24 57
40 25 19
40 26 32
40 27 70
40 28 11
40 29 100
40 30 24
40 31 83
40 32 38
40 33 51
40 34 44
40 35 68
40 36 8
40 37 42
40 38 37
40 39 84
41 0 49
41 1 6
41 2 100
41 3 63
41 4 90
41 5 38
41 6 46
41 7 20
41 8 12
41 9 78
41 10 54
41 11 67
41 12 60
41 13 27
41 14 37
41 15 87
41 16 89
41 17 23
41 18 36
41 19 38
41 20 29
41 21 81
41 22 19
41 23 55
41 24 3
41 25 75
41 26 51
41 27 90
41 28 39
41 29 13
41 30 56
41 31 7
41 32 37
41 33 24
41 34 4
41 35 19
41 36 5
41 37 80
41 38 66
41 39 29
41 40 65
42 0 3
42 1 39
42 2 17
42 3 96
42 4 29
42 5 39
42 6 94
42 7 62
42 8 44
42 9 97
42 10 96
42 11 37
42 12 10
42 13 19
42 14 1
42 15 45
42 16 34
42 17 87
42 18 94
42 19 54
42 20 51
42 21 13
42 22 7
42 23 97
42 24 42
42 25 85
42 26 6
42 27 27
42 28 92
42 29 51
42 30 12
42 31 9
42 32 53
42 33 34
42 34 77
42 35 5
42 36 82
42 37 82
42 38 40
42 39 22
42 40 64
42 41 85
43 0 39
43 1 18
43 2 39
43 3 25
43 4 70
43 5 81
43 6 89
43 7 28
43 8 99
43 9 42
43 10 62
43 11 42
43 12 68
43 13 75
43 14 32
43 15 65
43 16 69
43 17 84
43 18 25
43 19 79
43 20 62
43 21 13
43 22 64
43 23 83
43 24 61
43 25 2
43 26 2
43 27 22
43 28 23
43 29 74
43 30 62
43 31 58
43 32 7
43 33 46
43 34 86
43 35 24
43 36 90
43 37 84
43 38 68
43 39 63
43 40 54
43 41 45
43 42 39
44 0 48
44 1 93
44 2 83
44 3 98
44 4 13
44 5 82
44 6 5
44 7 33
44 8 75
44 9 31
44 10 13
44 11 68
44 12 98
44 13 98
44 14 56
44 15 22
44 16 36
44 17 42
44 18 90
44 19 81
44 20 70
44 21 47
44 22 10
44 23 5
44 24 5
44 25 26
44 26 6
44 27 27
44 28 11
44 29 10
44 30 68
44 31 21
44 32 11
44 33 65
44 34 12
44 35 38
44 36 53
44 37 8
44 38 39
44 39 36
44 40 23
44 41 92
44 42 27
44 43 62
45 0 83
45 1 98
45 2 11
45 3 58
45 4 43
45 5 59
45 6 31
45 7 93
45 8 95
45 9 80
45 10 21
45 11 49
45 12 76
45 13 54
45 14 88
45 15 16
45 16 34
45 17 80
45 18 93
45 19 66
45 20 13
45 21 19
45 22 46
45 23 11
45 24 83
45 25 65
45 26 67
45 27 84
45 28 81
45 29 11
45 30 72
45 31 67
45 32 39
45 33 22
45 34 96
45 35 72
45 36 12
45 37 67
45 38 59
45 39 62
45 40 35
45 41 63
45 42 36
45 43 36
45 44 77
46 0 19
46 1 75
46 2 48
46 3 56
46 4 9
46 5 2
46 6 10
46 7 46
46 8 99
46 9 80
46 10 6
46 11 92
46 12 94
46 13 22
46 14 29
46 15 2
46 16 5
46 17 79
46 18 2
46 19 89
46 20 40
46 21 46
46 22 44
46 23 85
46 24 57
46 25 57
46 26 13
46 27 42
46 28 61
46 29 66
46 30 14
46 31 98
46 32 4
46 33 39
46 34 59
46 35 75
46 36 39
46 37 87
46 38 39
46 39 28
46 40 31
46 41 35
46 42 100
46 43 71
46 44 23
46 45 99
47 0 84
47 1 41
47 2 16
47 3 9
47 4 40
47 5 89
47 6 4
47 7 13
47 8 32
47 9 90
47 10 81
47 11 37
47 12 97
47 13 29
47 14 7
47 15 97
47 16 26
47 17 93
47 18 97
47 19 84
47 20 80
47 21 82
47 22 70
47 23 65
47 24 49
47 25 24
47 26 86
47 27 72
47 28 33
47 29 33
47 30 33
47 31 76
47 32 89
47 33 79
47 34 69
47 35 69
47 36 84
47 37 42
47 38 8
47 39 86
47 40 37
47 41 56
47 42 18
47 43 64
47 44 56
47 45 86
47 46 72
48 0 2
48 1 79
48 2 96
48 3 54
48 4 71
48 5 99
48 6 76
48 7 34
48 8 98
48 9 18
48 10 56
48 11 43
48 12 11
48 13 67
48 14 27
48 15 24
48 16 28
48 17 82
48 18 35
48 19 41
48 20 24
48 21 22
48 22 20
48 23 58
48 24 2
48 25 76
48 26 27
48 27 41
48 28 65
48 29 88
48 30 1
48 31 26
48 32 60
48 33 8
48 34 38
48 35 66
48 36 27
48 37 24
48 38 77
48 39 52
48 40 5
48 41 64
48 42 22
48 43 59
48 44 43
48 45 52
48 46 55
48 47 80
49 0 41
49 1 60
49 2 79
49 3 28
49 4 19
49 5 2
49 6 73
49 7 36
49 8 66
49 9 38
49 10 82
49 11 82
49 12 51
49 13 14
49 14 67
49 15 8
49 16 69
49 17 37
49 18 61
49 19 23
49 20 66
49 21 55
49 22 44
49 23 4
49 24 79
49 25 15
49 26 9
49 27 33
49 28 48
49 29 95
49 30 85
49 31 34
49 32 29
49 33 46
49 34 53
49 35 8
49 36 89
49 37 91
49 38 47
49 39 62
49 40 64
49 41 57
49 42 48
49 43 97
49 44 25
49 45 42
49 46 5
49 47 88
49 48 62
50 0 53
50 1 34
50 2 83
50 3 100
50 4 47
50 5 91
50 6 97
50 7 2
50 8 77
50 9 11
50 10 69
50 11 11
50 12 23
50 13 67
50 14 36
50 15 48
50 16 53
50 17 82
50 18 8
50 19 78
50 20 45
50 21 1
50 22 67
50 23 78
50 24 74
50 25 14
50 26 31
50 27 4
50 28 36
50 29 76
50 30 36
50 31 24
50 32 65
50 33 68
50 34 34
50 35 57
50 36 71
50 37 100
50 38 24
50 39 62
50 40 92
50 41 44
50 42 47
50 43 33
50 44 51
50 45 51
50 46 17
50 47 16
50 48 53
50 49 93
51 0 69
51 1 52
51 2 73
51 3 21
51 4 52
51 5 5
51 6 3
51 7 51
51 8 89
51 9 33
51 10 76
51 11 98
51 12 85
51 13 7
51 14 73
51 15 34
51 16 62
51 17 97
51 18 89
51 19 41
51 20 36
51 21 68
51 22 14
51 23 61
51 24 84
51 25 55
51 26 44
51 27 2
51 28 53
51 29 23
51 30 40
51 31 29
51 32 13
51 33 18
51 34 100
51 35 38
51 36 56
51 37 69
51 38 99
51 39 22
51 40 91
51 41 97
51 42 28
51 43 59
51 44 97
51 45 45
51 46 31
51 47 76
51 48 14
51 49 26
51 50 8
52 0 81
52 1 3
52 2 63
52 3 64
52 4 67
52 5 100
52 6 64
52 7 85
52 8 14
52 9 35
52 10 49
52 11 97
52 12 64
52 13 7
52 14 36
52 15 37
52 16 38
52 17 23
52 18 38
52 19 20
52 20 4
52 21 50
52 22 44
52 23 11
52 24 37
52 25 31
52 26 69
52 27 16
52 28 27
52 29 69
52 30 12
52 31 58
52 32 9
52 33 84
52 34 44
52 35 2
52 36 36
52 37 86
52 38 17
52 39 40
52 40 25
52 41 29
52 42 83
52 43 60
52 44 21
52 45 28
52 46 37
52 47 44
52 48 85
52 49 67
52 50 41
52 51 95
53 0 99
53 1 28
53 2 91
53 3 56
53 4 14
53 5 5
53 6 26
53 7 91
53 8 27
53 9 96
53 10 4
53 11 47
53 12 40
53 13 88
53 14 75
53 15 94
53 16 27
53 17 70
53 18 51
53 19 27
53 20 36
53 21 48
53 22 32
53 23 84
53 24 83
53 25 32
53 26 38
53 27 98
53 28 32
53 29 35
53 30 81
53 31 88
53 32 49
53 33 7
53 34 49
53 35 78
53 36 87
53 37 65
53 38 91
53 39 71
53 40 35
53 41 26
53 42 40
53 43 34
53 44 42
53 45 42
53 46 4
53 47 70
53 48 99
53 49 79
53 50 2
53 51 75
53 52 24
54 0 11
54 1 41
54 2 12
54 3 15
54 4 15
54 5 57
54 6 54
54 7 36
54 8 76
54 9 53
54 10 67
54 11 58
54 12 50
54 13 32
54 14 40
54 15 91
54 16 47
54 17 82
54 18 90
54 19 48
54 20 15
54 21 72
54 22 90
54 23 44
54 24 58
54 25 76
54 26 99
54 27 24
54 28 6
54 29 18
54 30 93
54 31 60
54 32 15
54 33 10
54 34 35
54 35 76
54 36 84
54 37 29
54 38 15
54 39 76
54 40 5
54 41 59
54 42 64
54 43 99
54 44 74
54 45 77
54 46 15
54 47 10
54 48 47
54 49 82
54 50 65
54 51 14
54 52 10
54 53 74
